98 52 63 55 4 3 82 25 69 19 94 95 50 17 45 49 65 77 29 54 92 22 10 99 57 36 73 97 32 20 61 96 60 70 88 67 31 7 43 27 34 33 76 44 14 38 68 24 12 18 85 90 39 51 26 46 21 16 66 30 79 5 62 23 87 42 78 8 0 48 47 40 91 93 35 41 72 15 89 9 1 59 56 81 71 74 84 2 83 80 58 53 28 86 6 64 13 37 75 11 

